NAME          COPTPROB
OBJSENSE
  MIN
ROWS
 N  __OBJ___
 L  C1      
 L  C2      
 L  C4      
 L  C7      
 L  C8      
 L  C9      
 L  C11     
 L  C12     
 L  C14     
 L  C16     
 L  C17     
 L  C18     
 L  C20     
 L  C21     
 L  C23     
 L  C26     
 L  C27     
 L  C29     
 L  C32     
 L  C33     
 L  C34     
 L  C35     
 L  C36     
 L  C38     
 L  C39     
 L  C40     
 L  C41     
 L  C45     
 L  C48     
 L  C49     
 L  C50     
 L  C54     
 L  C55     
 L  C57     
 L  C58     
 L  C61     
 L  C63     
 L  C64     
 L  C66     
 L  C68     
 L  C69     
 L  C70     
 L  C72     
 L  C76     
 L  C77     
 L  C81     
 L  C83     
 L  C84     
 L  C85     
 L  C86     
 L  C87     
 L  C89     
 L  C90     
 L  C96     
 L  C98     
 L  C99     
 L  C100    
 L  C101    
 L  C104    
 L  C106    
 L  C107    
 L  C109    
 L  C110    
 L  C111    
 L  C115    
 L  C118    
 L  C119    
 L  C120    
 L  C121    
 L  C122    
 L  C123    
 L  C126    
 L  C128    
 L  C129    
 L  C130    
 L  C132    
 L  C133    
 L  C135    
 L  C138    
 L  C140    
 L  C141    
 L  C142    
 L  C143    
 L  C147    
 L  C148    
 L  C149    
 L  C150    
 L  C152    
 L  C153    
 L  C156    
 L  C158    
 L  C159    
 L  C161    
 L  C167    
 L  C168    
 L  C169    
 L  C170    
 L  C171    
 L  C173    
 L  C175    
 L  C177    
 L  C178    
 L  C179    
 L  C183    
 L  C188    
 L  C189    
 L  C190    
 L  C191    
 L  C192    
 L  C194    
 L  C195    
 L  C196    
 L  C197    
 L  C198    
 L  C200    
 L  C202    
 L  C203    
 L  C204    
 L  C205    
 L  C206    
 L  C207    
 L  C208    
 L  C209    
 L  C211    
 L  C212    
 L  C213    
 L  C215    
 L  C218    
 L  C219    
 L  C220    
 L  C221    
 L  C224    
 L  C225    
 L  C227    
 L  C228    
 L  C229    
 L  C231    
 L  C232    
 L  C237    
 L  C238    
 L  C241    
 L  C242    
 L  C244    
 L  C245    
 L  C248    
 L  C249    
 L  C250    
 L  C251    
 L  C252    
 L  C254    
 L  C259    
 L  C260    
 L  C261    
 L  C265    
 L  C266    
 L  C268    
 L  C269    
 L  C270    
 L  C271    
 L  C272    
 L  C273    
 L  C274    
 L  C275    
 L  C277    
 L  C280    
 L  C283    
 L  C287    
 L  C288    
 L  C290    
 L  C292    
 L  C294    
 L  C296    
 L  C298    
 L  C299    
 L  C300    
 L  C301    
 L  C305    
 L  C306    
 L  C307    
 L  C308    
 L  C309    
 L  C310    
 L  C311    
 L  C312    
 L  C313    
 L  C314    
 L  C315    
 L  C317    
 L  C319    
 L  C322    
 L  C323    
 L  C324    
 L  C325    
 L  C328    
 L  C330    
 L  C331    
 L  C333    
 L  C336    
 L  C337    
 L  C340    
 L  C341    
 L  C342    
 L  C346    
 L  C349    
 L  C350    
 L  C354    
 L  C355    
 L  C357    
 L  C364    
 L  C365    
 L  C367    
 L  C370    
 L  C372    
 L  C374    
 L  C375    
 L  C376    
 L  C377    
 L  C378    
 L  C379    
 L  C383    
 L  C385    
 L  C387    
 L  C388    
 L  C395    
 L  C396    
 L  C397    
 L  C398    
 L  C402    
 L  C404    
 L  C406    
 L  C407    
 L  C408    
 L  C410    
 L  C412    
 L  C413    
 L  C417    
 L  C418    
 L  C419    
 L  C422    
 L  C423    
 L  C424    
 L  C425    
 L  C426    
 L  C428    
 L  C429    
 L  C431    
 L  C432    
 L  C433    
 L  C436    
 L  C439    
 L  C440    
 L  C441    
 L  C442    
 L  C443    
 L  C446    
 L  C447    
 L  C452    
 L  C453    
 L  C458    
 L  C459    
 L  C460    
 L  C462    
 L  C463    
 L  C467    
 L  C468    
 L  C470    
 L  C472    
 L  C473    
 L  C475    
 L  C476    
 L  C479    
 L  C480    
 L  C483    
 L  C484    
 L  C485    
 L  C486    
 L  C489    
 L  C490    
 L  C491    
 L  C492    
 L  C494    
 L  C495    
 L  C498    
 L  C500    
 L  C501    
 L  C502    
 L  C503    
 L  C505    
 L  C508    
 L  C512    
 L  C513    
 L  C514    
 L  C515    
 L  C516    
 L  C519    
 L  C520    
 L  C521    
 L  C524    
 L  C525    
 L  C526    
 L  C531    
 L  C532    
 L  C534    
 L  C536    
 L  C538    
 L  C539    
 L  C540    
 L  C542    
 L  C549    
 L  C550    
 L  C556    
 L  C558    
 L  C559    
 L  C560    
 L  C561    
 L  C562    
 L  C564    
COLUMNS
    MARKER    'MARKER'                 'INTORG'
    x1        __OBJ___  -1
    x1        C123      1
    x1        C177      1
    x1        C248      1
    x1        C271      1
    x1        C290      1
    x1        C336      1
    x1        C505      1
    x3        __OBJ___  -1
    x3        C17       1
    x3        C38       1
    x3        C85       1
    x3        C106      1
    x3        C129      1
    x3        C207      1
    x3        C340      1
    x3        C388      1
    x3        C424      1
    x3        C484      1
    x3        C494      1
    x3        C512      1
    x9        __OBJ___  -1
    x9        C38       1
    x9        C48       1
    x9        C50       1
    x9        C54       1
    x9        C69       1
    x9        C83       1
    x9        C121      1
    x9        C168      1
    x9        C194      1
    x9        C206      1
    x9        C207      1
    x9        C224      1
    x9        C259      1
    x9        C274      1
    x9        C294      1
    x9        C309      1
    x9        C311      1
    x9        C313      1
    x9        C418      1
    x9        C446      1
    x9        C484      1
    x9        C519      1
    x9        C525      1
    x9        C564      1
    x12       __OBJ___  -1
    x12       C41       1
    x12       C252      1
    x12       C288      1
    x12       C290      1
    x12       C480      1
    x14       __OBJ___  -1
    x14       C26       1
    x14       C111      1
    x14       C147      1
    x14       C269      1
    x14       C271      1
    x14       C306      1
    x14       C460      1
    x15       __OBJ___  -1
    x15       C12       1
    x15       C40       1
    x15       C106      1
    x15       C142      1
    x15       C269      1
    x15       C312      1
    x15       C319      1
    x15       C330      1
    x15       C379      1
    x15       C423      1
    x15       C424      1
    x15       C490      1
    x15       C542      1
    x16       __OBJ___  -1
    x16       C130      1
    x16       C195      1
    x16       C218      1
    x16       C229      1
    x16       C330      1
    x16       C367      1
    x16       C489      1
    x17       __OBJ___  -1
    x17       C23       1
    x17       C106      1
    x17       C232      1
    x17       C248      1
    x17       C526      1
    x18       __OBJ___  -1
    x18       C55       1
    x18       C109      1
    x18       C115      1
    x18       C120      1
    x18       C158      1
    x18       C215      1
    x18       C265      1
    x18       C385      1
    x18       C410      1
    x18       C412      1
    x18       C426      1
    x18       C452      1
    x19       __OBJ___  -1
    x19       C2        1
    x19       C81       1
    x19       C188      1
    x19       C205      1
    x19       C300      1
    x19       C308      1
    x19       C336      1
    x19       C540      1
    x19       C549      1
    x20       __OBJ___  -1
    x20       C307      1
    x20       C331      1
    x20       C388      1
    x20       C395      1
    x20       C447      1
    x20       C550      1
    x21       __OBJ___  -1
    x21       C1        1
    x21       C9        1
    x21       C130      1
    x21       C208      1
    x21       C298      1
    x21       C412      1
    x21       C413      1
    x21       C452      1
    x21       C468      1
    x21       C512      1
    x22       __OBJ___  -1
    x22       C49       1
    x22       C177      1
    x22       C312      1
    x22       C446      1
    x23       __OBJ___  -1
    x23       C48       1
    x23       C69       1
    x23       C100      1
    x23       C101      1
    x23       C109      1
    x23       C152      1
    x23       C194      1
    x23       C203      1
    x23       C305      1
    x23       C355      1
    x23       C370      1
    x23       C383      1
    x23       C418      1
    x23       C436      1
    x23       C441      1
    x23       C519      1
    x25       __OBJ___  -1
    x25       C66       1
    x25       C188      1
    x25       C194      1
    x25       C549      1
    x26       __OBJ___  -1
    x26       C1        1
    x26       C16       1
    x26       C18       1
    x26       C70       1
    x26       C100      1
    x26       C101      1
    x26       C161      1
    x26       C209      1
    x26       C305      1
    x26       C308      1
    x26       C375      1
    x26       C491      1
    x26       C524      1
    x27       __OBJ___  -1
    x27       C7        1
    x27       C96       1
    x27       C141      1
    x27       C191      1
    x27       C205      1
    x27       C300      1
    x27       C342      1
    x27       C395      1
    x27       C396      1
    x27       C476      1
    x28       __OBJ___  -1
    x28       C32       1
    x28       C104      1
    x28       C118      1
    x28       C197      1
    x28       C203      1
    x28       C221      1
    x28       C249      1
    x28       C288      1
    x28       C305      1
    x28       C467      1
    x28       C492      1
    x28       C514      1
    x29       __OBJ___  -1
    x29       C2        1
    x29       C7        1
    x29       C11       1
    x29       C55       1
    x29       C153      1
    x29       C215      1
    x29       C296      1
    x29       C443      1
    x29       C501      1
    x30       __OBJ___  -1
    x30       C50       1
    x30       C63       1
    x30       C118      1
    x30       C148      1
    x30       C170      1
    x30       C224      1
    x30       C311      1
    x30       C317      1
    x30       C324      1
    x30       C350      1
    x30       C479      1
    x30       C503      1
    x31       __OBJ___  -1
    x31       C69       1
    x31       C109      1
    x31       C120      1
    x31       C207      1
    x31       C272      1
    x31       C315      1
    x31       C365      1
    x31       C532      1
    x32       __OBJ___  -1
    x32       C140      1
    x32       C296      1
    x32       C309      1
    x32       C322      1
    x32       C442      1
    x33       __OBJ___  -1
    x33       C128      1
    x33       C141      1
    x33       C167      1
    x33       C209      1
    x33       C211      1
    x33       C337      1
    x33       C397      1
    x33       C536      1
    x34       __OBJ___  -1
    x34       C33       1
    x34       C83       1
    x34       C374      1
    x34       C476      1
    x35       __OBJ___  -1
    x35       C86       1
    x35       C167      1
    x35       C349      1
    x35       C354      1
    x35       C370      1
    x35       C397      1
    x35       C418      1
    x35       C425      1
    x35       C559      1
    x36       __OBJ___  -1
    x36       C147      1
    x36       C168      1
    x36       C204      1
    x36       C270      1
    x36       C294      1
    x36       C396      1
    x36       C398      1
    x36       C473      1
    x36       C495      1
    x37       __OBJ___  -1
    x37       C81       1
    x37       C413      1
    x37       C502      1
    x38       __OBJ___  -1
    x38       C228      1
    x38       C259      1
    x38       C300      1
    x38       C431      1
    x38       C490      1
    x39       __OBJ___  -1
    x39       C90       1
    x39       C107      1
    x39       C220      1
    x39       C349      1
    x39       C357      1
    x39       C419      1
    x39       C501      1
    x40       __OBJ___  -1
    x40       C85       1
    x40       C190      1
    x40       C439      1
    x40       C503      1
    x41       __OBJ___  -1
    x41       C1        1
    x41       C100      1
    x41       C170      1
    x41       C404      1
    x42       __OBJ___  -1
    x42       C2        1
    x42       C58       1
    x42       C277      1
    x42       C333      1
    x42       C378      1
    x42       C436      1
    x43       __OBJ___  -1
    x43       C110      1
    x43       C173      1
    x43       C225      1
    x43       C378      1
    x43       C428      1
    x43       C502      1
    x43       C556      1
    x44       __OBJ___  -1
    x44       C12       1
    x44       C159      1
    x44       C208      1
    x44       C314      1
    x44       C433      1
    x44       C475      1
    x44       C521      1
    x45       __OBJ___  -1
    x45       C21       1
    x45       C45       1
    x45       C84       1
    x45       C86       1
    x45       C161      1
    x45       C377      1
    x45       C425      1
    x45       C463      1
    x46       __OBJ___  -1
    x46       C120      1
    x46       C189      1
    x46       C231      1
    x46       C406      1
    x46       C432      1
    x46       C486      1
    x46       C534      1
    x47       __OBJ___  -1
    x47       C41       1
    x47       C45       1
    x47       C90       1
    x47       C98       1
    x47       C99       1
    x47       C149      1
    x47       C407      1
    x47       C408      1
    x47       C417      1
    x48       __OBJ___  -1
    x48       C17       1
    x48       C189      1
    x48       C238      1
    x48       C245      1
    x48       C266      1
    x49       __OBJ___  -1
    x49       C118      1
    x49       C254      1
    x49       C538      1
    x50       __OBJ___  -1
    x50       C20       1
    x50       C169      1
    x50       C241      1
    x50       C341      1
    x50       C376      1
    x50       C525      1
    x50       C526      1
    x51       __OBJ___  -1
    x51       C86       1
    x51       C301      1
    x51       C340      1
    x51       C397      1
    x52       __OBJ___  -1
    x52       C26       1
    x52       C98       1
    x52       C280      1
    x52       C283      1
    x52       C491      1
    x53       __OBJ___  -1
    x53       C87       1
    x53       C96       1
    x53       C119      1
    x53       C248      1
    x53       C479      1
    x54       __OBJ___  -1
    x54       C121      1
    x54       C298      1
    x54       C519      1
    x55       __OBJ___  -1
    x55       C121      1
    x55       C460      1
    x56       __OBJ___  -1
    x56       C63       1
    x56       C89       1
    x56       C260      1
    x56       C275      1
    x56       C376      1
    x56       C485      1
    x56       C494      1
    x56       C560      1
    x56       C561      1
    x57       __OBJ___  -1
    x57       C333      1
    x57       C404      1
    x58       __OBJ___  -1
    x58       C99       1
    x58       C126      1
    x58       C150      1
    x58       C260      1
    x58       C314      1
    x59       __OBJ___  -1
    x59       C173      1
    x59       C175      1
    x59       C265      1
    x59       C357      1
    x59       C374      1
    x60       __OBJ___  -1
    x60       C34       1
    x60       C156      1
    x60       C167      1
    x60       C425      1
    x60       C539      1
    x61       __OBJ___  -1
    x61       C23       1
    x61       C32       1
    x61       C138      1
    x61       C442      1
    x62       __OBJ___  -1
    x62       C76       1
    x62       C168      1
    x62       C232      1
    x62       C261      1
    x62       C429      1
    x64       __OBJ___  -1
    x64       C39       1
    x64       C122      1
    x64       C283      1
    x64       C319      1
    x64       C486      1
    x65       __OBJ___  -1
    x65       C38       1
    x65       C224      1
    x65       C364      1
    x65       C458      1
    x65       C515      1
    x65       C524      1
    x66       __OBJ___  -1
    x66       C27       1
    x66       C29       1
    x66       C61       1
    x66       C110      1
    x66       C196      1
    x66       C242      1
    x66       C259      1
    x66       C472      1
    x67       __OBJ___  -1
    x67       C132      1
    x67       C200      1
    x67       C206      1
    x67       C218      1
    x67       C268      1
    x67       C273      1
    x67       C480      1
    x67       C534      1
    x68       __OBJ___  -1
    x68       C101      1
    x68       C402      1
    x68       C542      1
    x69       __OBJ___  -1
    x69       C215      1
    x69       C294      1
    x69       C516      1
    x70       __OBJ___  -1
    x70       C54       1
    x70       C178      1
    x70       C375      1
    x71       __OBJ___  -1
    x71       C87       1
    x71       C261      1
    x72       __OBJ___  -1
    x72       C8        1
    x72       C20       1
    x72       C27       1
    x72       C77       1
    x72       C142      1
    x74       __OBJ___  -1
    x74       C35       1
    x74       C148      1
    x74       C242      1
    x74       C287      1
    x74       C325      1
    x76       __OBJ___  -1
    x76       C21       1
    x76       C159      1
    x76       C192      1
    x76       C213      1
    x76       C219      1
    x76       C385      1
    x77       __OBJ___  -1
    x77       C132      1
    x77       C178      1
    x77       C306      1
    x77       C485      1
    x78       __OBJ___  -1
    x78       C205      1
    x78       C467      1
    x79       __OBJ___  -1
    x79       C171      1
    x79       C212      1
    x79       C498      1
    x79       C531      1
    x79       C549      1
    x80       __OBJ___  -1
    x80       C191      1
    x80       C325      1
    x81       __OBJ___  -1
    x81       C452      1
    x81       C564      1
    x82       __OBJ___  -1
    x82       C190      1
    x82       C192      1
    x82       C244      1
    x82       C556      1
    x83       __OBJ___  -1
    x83       C89       1
    x83       C377      1
    x83       C443      1
    x84       __OBJ___  -1
    x84       C77       1
    x84       C198      1
    x84       C324      1
    x84       C470      1
    x84       C539      1
    x85       __OBJ___  -1
    x85       C9        1
    x85       C119      1
    x85       C179      1
    x85       C398      1
    x86       __OBJ___  -1
    x86       C171      1
    x86       C183      1
    x86       C310      1
    x86       C419      1
    x86       C492      1
    x86       C513      1
    x87       __OBJ___  -1
    x87       C219      1
    x87       C231      1
    x87       C387      1
    x87       C439      1
    x87       C500      1
    x88       __OBJ___  -1
    x88       C66       1
    x88       C558      1
    x89       __OBJ___  -1
    x89       C39       1
    x89       C315      1
    x90       __OBJ___  -1
    x90       C133      1
    x90       C200      1
    x90       C251      1
    x90       C280      1
    x90       C292      1
    x90       C453      1
    x90       C516      1
    x90       C536      1
    x91       __OBJ___  -1
    x91       C122      1
    x91       C221      1
    x92       __OBJ___  -1
    x92       C16       1
    x92       C196      1
    x92       C266      1
    x93       __OBJ___  -1
    x93       C34       1
    x93       C203      1
    x93       C268      1
    x94       __OBJ___  -1
    x94       C274      1
    x94       C408      1
    x95       __OBJ___  -1
    x95       C220      1
    x95       C350      1
    x96       __OBJ___  -1
    x96       C138      1
    x96       C426      1
    x96       C440      1
    x96       C495      1
    x96       C500      1
    x96       C520      1
    x97       __OBJ___  -1
    x97       C40       1
    x97       C58       1
    x97       C559      1
    x98       __OBJ___  -1
    x98       C270      1
    x98       C379      1
    x98       C428      1
    x99       __OBJ___  -1
    x99       C313      1
    x99       C432      1
    x100      __OBJ___  -1
    x100      C4        1
    x100      C36       1
    x100      C49       1
    x100      C195      1
    x100      C346      1
    x100      C538      1
    x101      __OBJ___  -1
    x101      C204      1
    x101      C252      1
    x101      C468      1
    x101      C540      1
    x102      __OBJ___  -1
    x102      C158      1
    x102      C228      1
    x102      C447      1
    x102      C490      1
    x103      __OBJ___  -1
    x103      C301      1
    x103      C317      1
    x103      C346      1
    x103      C410      1
    x104      __OBJ___  -1
    x104      C68       1
    x104      C355      1
    x104      C424      1
    x104      C505      1
    x104      C508      1
    x105      __OBJ___  -1
    x105      C152      1
    x105      C169      1
    x105      C237      1
    x105      C337      1
    x105      C483      1
    x105      C513      1
    x106      __OBJ___  -1
    x106      C143      1
    x106      C183      1
    x106      C372      1
    x106      C472      1
    x106      C520      1
    x107      __OBJ___  -1
    x107      C83       1
    x107      C476      1
    x107      C484      1
    x108      __OBJ___  -1
    x108      C115      1
    x108      C251      1
    x108      C422      1
    x108      C475      1
    x109      __OBJ___  -1
    x109      C11       1
    x109      C36       1
    x109      C50       1
    x109      C227      1
    x110      __OBJ___  -1
    x110      C197      1
    x110      C218      1
    x110      C330      1
    x111      __OBJ___  -1
    x111      C55       1
    x111      C531      1
    x112      __OBJ___  -1
    x112      C228      1
    x112      C561      1
    x112      C562      1
    x113      __OBJ___  -1
    x113      C213      1
    x113      C322      1
    x113      C453      1
    x113      C473      1
    x114      __OBJ___  -1
    x114      C70       1
    x114      C367      1
    x114      C508      1
    x115      __OBJ___  -1
    x115      C64       1
    x115      C123      1
    x115      C202      1
    x115      C237      1
    x115      C562      1
    x117      __OBJ___  -1
    x117      C245      1
    x117      C372      1
    x117      C558      1
    x118      __OBJ___  -1
    x118      C104      1
    x118      C250      1
    x118      C292      1
    x118      C440      1
    x119      __OBJ___  -1
    x119      C76       1
    x119      C156      1
    x119      C254      1
    x119      C273      1
    x119      C328      1
    x121      __OBJ___  -1
    x121      C149      1
    x121      C198      1
    x121      C412      1
    x122      __OBJ___  -1
    x122      C29       1
    x122      C175      1
    x122      C277      1
    x123      __OBJ___  -1
    x123      C35       1
    x123      C250      1
    x123      C532      1
    x124      __OBJ___  -1
    x124      C153      1
    x124      C211      1
    x124      C407      1
    x125      __OBJ___  -1
    x125      C7        1
    x125      C143      1
    x125      C459      1
    x125      C463      1
    x126      __OBJ___  -1
    x126      C18       1
    x126      C179      1
    x126      C299      1
    x126      C462      1
    x127      __OBJ___  -1
    x127      C4        1
    x127      C57       1
    x127      C383      1
    x127      C431      1
    x128      __OBJ___  -1
    x128      C14       1
    x128      C48       1
    x128      C135      1
    x128      C202      1
    x128      C521      1
    x129      __OBJ___  -1
    x129      C135      1
    x129      C150      1
    x129      C227      1
    x129      C323      1
    x129      C483      1
    x130      __OBJ___  -1
    x130      C128      1
    x130      C275      1
    x130      C299      1
    x130      C459      1
    x131      __OBJ___  -1
    x131      C107      1
    x131      C212      1
    x131      C433      1
    x132      __OBJ___  -1
    x132      C323      1
    x132      C370      1
    x133      __OBJ___  -1
    x133      C241      1
    x133      C406      1
    x133      C462      1
    x134      __OBJ___  -1
    x134      C156      1
    x134      C402      1
    x135      __OBJ___  -1
    x135      C524      1
    x135      C550      1
    x136      __OBJ___  -1
    x136      C57       1
    x136      C72       1
    x136      C229      1
    x136      C238      1
    x137      __OBJ___  -1
    x137      C310      1
    x137      C311      1
    x138      __OBJ___  -1
    x138      C287      1
    x138      C307      1
    x138      C364      1
    x138      C470      1
    x139      __OBJ___  -1
    x139      C341      1
    x139      C387      1
    x139      C417      1
    x139      C441      1
    x140      __OBJ___  -1
    x140      C68       1
    x140      C272      1
    x140      C354      1
    x140      C458      1
    x141      __OBJ___  -1
    x141      C72       1
    x141      C191      1
    x142      __OBJ___  -1
    x142      C8        1
    x142      C84       1
    x142      C489      1
    x142      C514      1
    x143      __OBJ___  -1
    x143      C61       1
    x143      C331      1
    x143      C422      1
    x143      C429      1
    x144      __OBJ___  -1
    x144      C328      1
    x144      C342      1
    x144      C498      1
    x145      __OBJ___  -1
    x145      C14       1
    x145      C33       1
    x145      C515      1
    x146      __OBJ___  -1
    x146      C188      1
    x146      C249      1
    x147      __OBJ___  -1
    x147      C27       1
    x147      C129      1
    x147      C140      1
    x148      __OBJ___  -1
    x148      C64       1
    x148      C244      1
    x148      C365      1
    x149      __OBJ___  -1
    x149      C111      1
    x149      C560      1
    x150      __OBJ___  -1
    x150      C126      1
    x150      C133      1
    x150      C225      1
    x150      C423      1
    MARKER    'MARKER'                 'INTEND'
RHS
    RHS       __OBJ___  5
    RHS       C1        1
    RHS       C2        1
    RHS       C4        1
    RHS       C7        1
    RHS       C8        1
    RHS       C9        1
    RHS       C11       1
    RHS       C12       1
    RHS       C14       1
    RHS       C16       1
    RHS       C17       1
    RHS       C18       1
    RHS       C20       1
    RHS       C21       1
    RHS       C23       1
    RHS       C26       1
    RHS       C27       1
    RHS       C29       1
    RHS       C32       1
    RHS       C33       1
    RHS       C34       1
    RHS       C35       1
    RHS       C36       1
    RHS       C38       1
    RHS       C39       1
    RHS       C40       1
    RHS       C41       1
    RHS       C45       1
    RHS       C48       1
    RHS       C49       1
    RHS       C50       1
    RHS       C54       1
    RHS       C55       1
    RHS       C57       1
    RHS       C58       1
    RHS       C61       1
    RHS       C63       1
    RHS       C64       1
    RHS       C66       1
    RHS       C68       1
    RHS       C69       1
    RHS       C70       1
    RHS       C72       1
    RHS       C76       1
    RHS       C77       1
    RHS       C81       1
    RHS       C83       1
    RHS       C84       1
    RHS       C85       1
    RHS       C86       1
    RHS       C87       1
    RHS       C89       1
    RHS       C90       1
    RHS       C96       1
    RHS       C98       1
    RHS       C99       1
    RHS       C100      1
    RHS       C101      1
    RHS       C104      1
    RHS       C106      1
    RHS       C107      1
    RHS       C109      1
    RHS       C110      1
    RHS       C111      1
    RHS       C115      1
    RHS       C118      1
    RHS       C119      1
    RHS       C120      1
    RHS       C121      1
    RHS       C122      1
    RHS       C123      1
    RHS       C126      1
    RHS       C128      1
    RHS       C129      1
    RHS       C130      1
    RHS       C132      1
    RHS       C133      1
    RHS       C135      1
    RHS       C138      1
    RHS       C140      1
    RHS       C141      1
    RHS       C142      1
    RHS       C143      1
    RHS       C147      1
    RHS       C148      1
    RHS       C149      1
    RHS       C150      1
    RHS       C152      1
    RHS       C153      1
    RHS       C156      1
    RHS       C158      1
    RHS       C159      1
    RHS       C161      1
    RHS       C167      1
    RHS       C168      1
    RHS       C169      1
    RHS       C170      1
    RHS       C171      1
    RHS       C173      1
    RHS       C175      1
    RHS       C177      1
    RHS       C178      1
    RHS       C179      1
    RHS       C183      1
    RHS       C188      1
    RHS       C189      1
    RHS       C190      1
    RHS       C191      1
    RHS       C192      1
    RHS       C194      1
    RHS       C195      1
    RHS       C196      1
    RHS       C197      1
    RHS       C198      1
    RHS       C200      1
    RHS       C202      1
    RHS       C203      1
    RHS       C204      1
    RHS       C205      1
    RHS       C206      1
    RHS       C207      1
    RHS       C208      1
    RHS       C209      1
    RHS       C211      1
    RHS       C212      1
    RHS       C213      1
    RHS       C215      1
    RHS       C218      1
    RHS       C219      1
    RHS       C220      1
    RHS       C221      1
    RHS       C224      1
    RHS       C225      1
    RHS       C227      1
    RHS       C228      1
    RHS       C229      1
    RHS       C231      1
    RHS       C232      1
    RHS       C237      1
    RHS       C238      1
    RHS       C241      1
    RHS       C242      1
    RHS       C244      1
    RHS       C245      1
    RHS       C248      1
    RHS       C249      1
    RHS       C250      1
    RHS       C251      1
    RHS       C252      1
    RHS       C254      1
    RHS       C259      1
    RHS       C260      1
    RHS       C261      1
    RHS       C265      1
    RHS       C266      1
    RHS       C268      1
    RHS       C269      1
    RHS       C270      1
    RHS       C271      1
    RHS       C272      1
    RHS       C273      1
    RHS       C274      1
    RHS       C275      1
    RHS       C277      1
    RHS       C280      1
    RHS       C283      1
    RHS       C287      1
    RHS       C288      1
    RHS       C290      1
    RHS       C292      1
    RHS       C294      1
    RHS       C296      1
    RHS       C298      1
    RHS       C299      1
    RHS       C300      1
    RHS       C301      1
    RHS       C305      1
    RHS       C306      1
    RHS       C307      1
    RHS       C308      1
    RHS       C309      1
    RHS       C310      1
    RHS       C311      1
    RHS       C312      1
    RHS       C313      1
    RHS       C314      1
    RHS       C315      1
    RHS       C317      1
    RHS       C319      1
    RHS       C322      1
    RHS       C323      1
    RHS       C324      1
    RHS       C325      1
    RHS       C328      1
    RHS       C330      1
    RHS       C331      1
    RHS       C333      1
    RHS       C336      1
    RHS       C337      1
    RHS       C340      1
    RHS       C341      1
    RHS       C342      1
    RHS       C346      1
    RHS       C349      1
    RHS       C350      1
    RHS       C354      1
    RHS       C355      1
    RHS       C357      1
    RHS       C364      1
    RHS       C365      1
    RHS       C367      1
    RHS       C370      1
    RHS       C372      1
    RHS       C374      1
    RHS       C375      1
    RHS       C376      1
    RHS       C377      1
    RHS       C378      1
    RHS       C379      1
    RHS       C383      1
    RHS       C385      1
    RHS       C387      1
    RHS       C388      1
    RHS       C395      1
    RHS       C396      1
    RHS       C397      1
    RHS       C398      1
    RHS       C402      1
    RHS       C404      1
    RHS       C406      1
    RHS       C407      1
    RHS       C408      1
    RHS       C410      1
    RHS       C412      1
    RHS       C413      1
    RHS       C417      1
    RHS       C418      1
    RHS       C419      1
    RHS       C422      1
    RHS       C423      1
    RHS       C424      1
    RHS       C425      1
    RHS       C426      1
    RHS       C428      1
    RHS       C429      1
    RHS       C431      1
    RHS       C432      1
    RHS       C433      1
    RHS       C436      1
    RHS       C439      1
    RHS       C440      1
    RHS       C441      1
    RHS       C442      1
    RHS       C443      1
    RHS       C446      1
    RHS       C447      1
    RHS       C452      1
    RHS       C453      1
    RHS       C458      1
    RHS       C459      1
    RHS       C460      1
    RHS       C462      1
    RHS       C463      1
    RHS       C467      1
    RHS       C468      1
    RHS       C470      1
    RHS       C472      1
    RHS       C473      1
    RHS       C475      1
    RHS       C476      1
    RHS       C479      1
    RHS       C480      1
    RHS       C483      1
    RHS       C484      1
    RHS       C485      1
    RHS       C486      1
    RHS       C489      1
    RHS       C490      1
    RHS       C491      1
    RHS       C492      1
    RHS       C494      1
    RHS       C495      1
    RHS       C498      1
    RHS       C500      1
    RHS       C501      1
    RHS       C502      1
    RHS       C503      1
    RHS       C505      1
    RHS       C508      1
    RHS       C512      1
    RHS       C513      1
    RHS       C514      1
    RHS       C515      1
    RHS       C516      1
    RHS       C519      1
    RHS       C520      1
    RHS       C521      1
    RHS       C524      1
    RHS       C525      1
    RHS       C526      1
    RHS       C531      1
    RHS       C532      1
    RHS       C534      1
    RHS       C536      1
    RHS       C538      1
    RHS       C539      1
    RHS       C540      1
    RHS       C542      1
    RHS       C549      1
    RHS       C550      1
    RHS       C556      1
    RHS       C558      1
    RHS       C559      1
    RHS       C560      1
    RHS       C561      1
    RHS       C562      1
    RHS       C564      1
BOUNDS
 UP BOUND     x1        1
 UP BOUND     x3        1
 UP BOUND     x9        1
 UP BOUND     x12       1
 UP BOUND     x14       1
 UP BOUND     x15       1
 UP BOUND     x16       1
 UP BOUND     x17       1
 UP BOUND     x18       1
 UP BOUND     x19       1
 UP BOUND     x20       1
 UP BOUND     x21       1
 UP BOUND     x22       1
 UP BOUND     x23       1
 UP BOUND     x25       1
 UP BOUND     x26       1
 UP BOUND     x27       1
 UP BOUND     x28       1
 UP BOUND     x29       1
 UP BOUND     x30       1
 UP BOUND     x31       1
 UP BOUND     x32       1
 UP BOUND     x33       1
 UP BOUND     x34       1
 UP BOUND     x35       1
 UP BOUND     x36       1
 UP BOUND     x37       1
 UP BOUND     x38       1
 UP BOUND     x39       1
 UP BOUND     x40       1
 UP BOUND     x41       1
 UP BOUND     x42       1
 UP BOUND     x43       1
 UP BOUND     x44       1
 UP BOUND     x45       1
 UP BOUND     x46       1
 UP BOUND     x47       1
 UP BOUND     x48       1
 UP BOUND     x49       1
 UP BOUND     x50       1
 UP BOUND     x51       1
 UP BOUND     x52       1
 UP BOUND     x53       1
 UP BOUND     x54       1
 UP BOUND     x55       1
 UP BOUND     x56       1
 UP BOUND     x57       1
 UP BOUND     x58       1
 UP BOUND     x59       1
 UP BOUND     x60       1
 UP BOUND     x61       1
 UP BOUND     x62       1
 UP BOUND     x64       1
 UP BOUND     x65       1
 UP BOUND     x66       1
 UP BOUND     x67       1
 UP BOUND     x68       1
 UP BOUND     x69       1
 UP BOUND     x70       1
 UP BOUND     x71       1
 UP BOUND     x72       1
 UP BOUND     x74       1
 UP BOUND     x76       1
 UP BOUND     x77       1
 UP BOUND     x78       1
 UP BOUND     x79       1
 UP BOUND     x80       1
 UP BOUND     x81       1
 UP BOUND     x82       1
 UP BOUND     x83       1
 UP BOUND     x84       1
 UP BOUND     x85       1
 UP BOUND     x86       1
 UP BOUND     x87       1
 UP BOUND     x88       1
 UP BOUND     x89       1
 UP BOUND     x90       1
 UP BOUND     x91       1
 UP BOUND     x92       1
 UP BOUND     x93       1
 UP BOUND     x94       1
 UP BOUND     x95       1
 UP BOUND     x96       1
 UP BOUND     x97       1
 UP BOUND     x98       1
 UP BOUND     x99       1
 UP BOUND     x100      1
 UP BOUND     x101      1
 UP BOUND     x102      1
 UP BOUND     x103      1
 UP BOUND     x104      1
 UP BOUND     x105      1
 UP BOUND     x106      1
 UP BOUND     x107      1
 UP BOUND     x108      1
 UP BOUND     x109      1
 UP BOUND     x110      1
 UP BOUND     x111      1
 UP BOUND     x112      1
 UP BOUND     x113      1
 UP BOUND     x114      1
 UP BOUND     x115      1
 UP BOUND     x117      1
 UP BOUND     x118      1
 UP BOUND     x119      1
 UP BOUND     x121      1
 UP BOUND     x122      1
 UP BOUND     x123      1
 UP BOUND     x124      1
 UP BOUND     x125      1
 UP BOUND     x126      1
 UP BOUND     x127      1
 UP BOUND     x128      1
 UP BOUND     x129      1
 UP BOUND     x130      1
 UP BOUND     x131      1
 UP BOUND     x132      1
 UP BOUND     x133      1
 UP BOUND     x134      1
 UP BOUND     x135      1
 UP BOUND     x136      1
 UP BOUND     x137      1
 UP BOUND     x138      1
 UP BOUND     x139      1
 UP BOUND     x140      1
 UP BOUND     x141      1
 UP BOUND     x142      1
 UP BOUND     x143      1
 UP BOUND     x144      1
 UP BOUND     x145      1
 UP BOUND     x146      1
 UP BOUND     x147      1
 UP BOUND     x148      1
 UP BOUND     x149      1
 UP BOUND     x150      1
ENDATA
